7 8 9 -1 4 5 2 9 7 1 7 -1 
7 7 3 5 -1 0 3 4 0 5 0 5 -1 
6 -1 8 9 8 9 2 2 2 0 -1 
2 5 5 2 8 2 2 3 7 7 -1 
9 8 3 7 7 9 3 6 2 -1 -1 0 8 -1 
5 -1 9 8 1 2 1 3 9 8 -1 
-1 7 -1 7 -1 0 6 6 3 2 0 7 2 -1 
8 6 8 2 9 4 5 8 1 8 5 5 -1 
1 0 7 7 8 5 4 8 6 1 -1 
1 -1 5 8 4 3 8 1 3 -1 7 -1 
8 9 0 3 1 2 1 6 -1 -1 
0 9 2 1 -1 9 7 0 5 0 -1 
1 9 5 1 -1 4 4 7 1 7 -1 
2 1 2 2 0 0 6 3 2 -1 
6 9 7 8 1 -1 -1 0 4 0 9 -1 
2 1 4 6 8 5 8 5 8 4 7 4 5 -1 
6 2 9 4 9 5 2 4 4 0 -1 4 -1 
9 -1 2 2 9 5 6 6 1 1 -1 
7 3 7 4 1 6 6 6 0 5 0 4 -1 
2 -1 8 9 5 9 -1 0 4 8 9 5 -1 
